c Random Network
p max    10      20
n         1  s
n        10  t
a       1       3      40
a       4       3      42
a       3       4      47
a       5       9      27
a       5       8      32
a       4       1      42
a       7      10       8
a      10       3      28
a       3       6      45
a       6       3      17
a       3       2      16
a       1       4       2
a       2       7      23
a       2       5      41
a      10       7      21
a       3       1      35
a       1       2      31
a       3       7      18
a       6       8      39
a      10       6      50
